unsat
(define-fun skel ((n130 Bool) (n107 Bool) (i_15 Bool) (n129 Bool)) Bool (let ((_let_1 (and n107 i_15))) (and n129 (and (or n130 _let_1) (not (and n130 _let_1))))))
31.66user 0.05system 0:31.71elapsed 99%CPU (0avgtext+0avgdata 75248maxresident)k
0inputs+8outputs (0major+13549minor)pagefaults 0swaps
